p cnf 7 28
-6 7 2 0
-7 5 -4 0
-3 7 5 0
-4 6 -5 0
4 3 -5 0
1 -3 -6 0
5 -1 -2 0
-4 -5 3 0
-7 -6 -2 0
-4 6 -7 0
-3 -4 2 0
3 2 -4 0
4 -6 -2 0
1 6 4 0
6 4 1 0
-1 -3 5 0
3 -2 1 0
6 2 -5 0
-7 -5 -4 0
-1 5 -3 0
-6 4 1 0
5 4 3 0
-5 4 -3 0
2 1 -7 0
-3 -4 2 0
-1 -6 3 0
1 6 -4 0
-2 5 3 0
